CapLotSizing_PM/src/Instancias/NCLSLT/25i18p2m/NBB01.dat
25 18 2
 1
      4832
      4832
    2
     3
     3
     3
     3
     4
     3
     4
     4
     3
     4
     3
     3
     2
     4
     2
     3
     3
     2
     2
     4
     3
     3
     2
     3
   1.6  14.2   595    17 
  1.1  25.3   913    25 
  4.5  14.3   417    16 
  3.9  39.1   439    20 
  4.4  22.4   690    25 
  1.0  43.0   509    15 
  1.1  44.4   652    25 
  1.5  41.6   812    18 
  1.4  35.2   848    19 
  2.5  44.0    72    20 
  2.0  24.8   918    15 
  2.2  19.2   118    20 
  3.2  43.6   371    21 
  1.6  21.9   590    24 
  1.8  14.1   406    20 
  2.0  49.4   440    22 
  3.5  49.8   208    15 
  1.4  20.7   542    21 
  3.2  13.8   254    23 
  4.8  18.5   739    17 
  2.8  17.7   589    22 
  3.6  33.2    69    24 
  3.5  11.2   915    17 
  5.0  47.5   320    23 
  3.3  45.6   366    20 
  4.6  34.6   252    24 
  2.3  31.3   217    17 
  2.7  21.2   803    17 
  1.3  44.5   130    19 
  2.8  30.9   706    18 
  3.7  46.8   153    16 
  3.8  44.8   277    16 
  4.5  40.7   143    15 
  4.0  49.7   795    18 
  4.4  49.9   922    17 
  2.5  42.1   224    18 
  3.6  34.5   600    17 
  1.4  30.5   780    17 
  3.3  13.0   336    21 
  4.1  17.3   785    16 
  2.8  24.0   275    16 
  3.3  29.8   230    22 
  4.6  34.3   757    20 
  4.8  14.9   644    25 
  1.4  47.4   463    23 
  1.7  48.4   911    20 
  2.4  12.7   742    24 
  2.4  18.2   572    23 
  1.6  38.4   149    23 
  3.0  16.7   791    19 
   39   128    22    93     9    22    13    38   112    87    58   116    46    63   137 
  147   108    40     0   123    42   161   126    29     3    99     4    46    94   155 
  148   156   100    90   115    24   129    18   146   142    71    84   174   142   179 
  100    97   178     6    61    26    99    76   145   152    19    11    13   167    37 
  163   114   131    59    33   156   159   125    86   135    91   174    10   100   143 
  111    50    65    80   170    23    65    99    94     1     4   117   147    86    90 
  146   165    92    21    84    41   165    33    26   117   174    95    28   171   126 
   63   118   121   160    23    65    44    21   105     8    63    65    12   165   175 
   93    80    87    77    78   137   115    89   108    79     9   178   130   137    20 
  138     2   146    38   178   137   143   108    82    19    69     2   106    96    61 
   69   162   173    78    85    86    80   112   136   100   161    86   107    75    77 
    7   106    63    25    61    17   111    71    77     2   116     4    30    85    51 
  131   169    88    22   169    58    34     9   138   154    36   110     2   140    38 
  179    11   179    74   179    62   104    79    28   176   172   115   122   166   157 
  146   123   135   172   130    86    74    51   135    32   163   130    49   164   164 
   19    80   143    61    16   111    40    45   101   144   157    18    57   110   104 
   35   106    50   172   173   127   152   129   151   134    37    34    17    77   136 
  109   114    23   151   142    28   131   162     0   113   132    11    45   125   152 
   44   178    21   172    70    29    91   113    21    67 
  164   116    17    15   179   119   154    97    56    30 
   21   172    35    39    68   141   133    59    77    97 
   51    77    26    25   108    89   135    32    21    12 
  161   124   144   128   179    19   164    14    81   157 
  115    87   146   179     6   113    90   150    19    53 
   28    87   143     7   139    75   136   176    16    92 
  152    90    58   176    93    41   169   167   113    85 
  107    68   120   165   176   159   141    98   124    86 
  177    16    53    55    54    23     9    18    46     7 
  169   171   150    69    47   143   142   125   103   163 
  105   131   170    55   161    75     2   151   106    99 
  137    84    13   121   178    26    66   102   121   132 
  112    34    19    19   157     0   106   128    63    70 
  178    16     0   127    88   149   104   157   111    16 
  152    84    92    42   131    41    16   157    52    43 
   81    49   133    75    21    56    15    28   137    84 
  172   120    58   147    56   149    98    91    47   143 
